set N := 1 2 3 4 5 6 7 8;

set U := 0 1 2 3 4 5 6 7 8 9 10 11 12 13 14 15 16 17 18 19 20 21 22 23 24 25 26 27 28 29 30 31 32 33 34 35 36 37 38 39 40 41 42 43 44 45 46 47 48 49 50 51 52 53 54 55 56 57 58 59 60 61 62 63 64 65 66 67 68 69 70 71 72 73 74 75 76 77 78 79 80 81 82 83 84 85 86 87 88 89 90 91 92 93 94 95 96 97 98 99 100 101 102 103 104 105 106 107 108 109 110 111 112 113 114 115 116 117 118 119 120 121 122 123 124 125 126 127 128 129 130 131 132 133 134 135 136 137 138 139 140 141 142 143 144 145 146 147 148 149 150 151 152 153 154 155 156 157 158 159 160 161 162 163 164 165 166 167 168 169 170 171 172 173 174 175 176 177 178 179 180 181 182 183 184 185 186 187 188 189 190 191 192 193 194 195 196 197 198 199 200 201 202 203 204 205 206 207 208 209 210 211 212 213 214 215 216 217 218 219 220 221 222 223 224 225 226 227 228 229 230 231 232 233 234 235 236 237 238 239 240 241 242 243 244 245 246 247 248 249 250 251 252 253 254 255;

set D := 0 1 2 4 8 12 16 17 18 20 24 28 32 33 34 36 40 44 48 52 56 64 65 66 68 72 76 80 84 88 96 100 104 112 116 120 128 129 130 132 136 140 144 145 146 148 152 156 160 161 162 164 168 172 176 180 184 192 193 194 196 200 204 208 212 216 224 228 232 240 244 248;

param X :=
	[0,1] 0
	[0,2] 0
	[0,3] 0
	[0,4] 0
	[0,5] 0
	[0,6] 0
	[0,7] 0
	[0,8] 0
	[1,1] 1
	[1,2] 0
	[1,3] 0
	[1,4] 0
	[1,5] 0
	[1,6] 0
	[1,7] 0
	[1,8] 0
	[2,1] 0
	[2,2] 1
	[2,3] 0
	[2,4] 0
	[2,5] 0
	[2,6] 0
	[2,7] 0
	[2,8] 0
	[3,1] 1
	[3,2] 1
	[3,3] 0
	[3,4] 0
	[3,5] 0
	[3,6] 0
	[3,7] 0
	[3,8] 0
	[4,1] 0
	[4,2] 0
	[4,3] 1
	[4,4] 0
	[4,5] 0
	[4,6] 0
	[4,7] 0
	[4,8] 0
	[5,1] 1
	[5,2] 0
	[5,3] 1
	[5,4] 0
	[5,5] 0
	[5,6] 0
	[5,7] 0
	[5,8] 0
	[6,1] 0
	[6,2] 1
	[6,3] 1
	[6,4] 0
	[6,5] 0
	[6,6] 0
	[6,7] 0
	[6,8] 0
	[7,1] 1
	[7,2] 1
	[7,3] 1
	[7,4] 0
	[7,5] 0
	[7,6] 0
	[7,7] 0
	[7,8] 0
	[8,1] 0
	[8,2] 0
	[8,3] 0
	[8,4] 1
	[8,5] 0
	[8,6] 0
	[8,7] 0
	[8,8] 0
	[9,1] 1
	[9,2] 0
	[9,3] 0
	[9,4] 1
	[9,5] 0
	[9,6] 0
	[9,7] 0
	[9,8] 0
	[10,1] 0
	[10,2] 1
	[10,3] 0
	[10,4] 1
	[10,5] 0
	[10,6] 0
	[10,7] 0
	[10,8] 0
	[11,1] 1
	[11,2] 1
	[11,3] 0
	[11,4] 1
	[11,5] 0
	[11,6] 0
	[11,7] 0
	[11,8] 0
	[12,1] 0
	[12,2] 0
	[12,3] 1
	[12,4] 1
	[12,5] 0
	[12,6] 0
	[12,7] 0
	[12,8] 0
	[13,1] 1
	[13,2] 0
	[13,3] 1
	[13,4] 1
	[13,5] 0
	[13,6] 0
	[13,7] 0
	[13,8] 0
	[14,1] 0
	[14,2] 1
	[14,3] 1
	[14,4] 1
	[14,5] 0
	[14,6] 0
	[14,7] 0
	[14,8] 0
	[15,1] 1
	[15,2] 1
	[15,3] 1
	[15,4] 1
	[15,5] 0
	[15,6] 0
	[15,7] 0
	[15,8] 0
	[16,1] 0
	[16,2] 0
	[16,3] 0
	[16,4] 0
	[16,5] 1
	[16,6] 0
	[16,7] 0
	[16,8] 0
	[17,1] 1
	[17,2] 0
	[17,3] 0
	[17,4] 0
	[17,5] 1
	[17,6] 0
	[17,7] 0
	[17,8] 0
	[18,1] 0
	[18,2] 1
	[18,3] 0
	[18,4] 0
	[18,5] 1
	[18,6] 0
	[18,7] 0
	[18,8] 0
	[19,1] 1
	[19,2] 1
	[19,3] 0
	[19,4] 0
	[19,5] 1
	[19,6] 0
	[19,7] 0
	[19,8] 0
	[20,1] 0
	[20,2] 0
	[20,3] 1
	[20,4] 0
	[20,5] 1
	[20,6] 0
	[20,7] 0
	[20,8] 0
	[21,1] 1
	[21,2] 0
	[21,3] 1
	[21,4] 0
	[21,5] 1
	[21,6] 0
	[21,7] 0
	[21,8] 0
	[22,1] 0
	[22,2] 1
	[22,3] 1
	[22,4] 0
	[22,5] 1
	[22,6] 0
	[22,7] 0
	[22,8] 0
	[23,1] 1
	[23,2] 1
	[23,3] 1
	[23,4] 0
	[23,5] 1
	[23,6] 0
	[23,7] 0
	[23,8] 0
	[24,1] 0
	[24,2] 0
	[24,3] 0
	[24,4] 1
	[24,5] 1
	[24,6] 0
	[24,7] 0
	[24,8] 0
	[25,1] 1
	[25,2] 0
	[25,3] 0
	[25,4] 1
	[25,5] 1
	[25,6] 0
	[25,7] 0
	[25,8] 0
	[26,1] 0
	[26,2] 1
	[26,3] 0
	[26,4] 1
	[26,5] 1
	[26,6] 0
	[26,7] 0
	[26,8] 0
	[27,1] 1
	[27,2] 1
	[27,3] 0
	[27,4] 1
	[27,5] 1
	[27,6] 0
	[27,7] 0
	[27,8] 0
	[28,1] 0
	[28,2] 0
	[28,3] 1
	[28,4] 1
	[28,5] 1
	[28,6] 0
	[28,7] 0
	[28,8] 0
	[29,1] 1
	[29,2] 0
	[29,3] 1
	[29,4] 1
	[29,5] 1
	[29,6] 0
	[29,7] 0
	[29,8] 0
	[30,1] 0
	[30,2] 1
	[30,3] 1
	[30,4] 1
	[30,5] 1
	[30,6] 0
	[30,7] 0
	[30,8] 0
	[31,1] 1
	[31,2] 1
	[31,3] 1
	[31,4] 1
	[31,5] 1
	[31,6] 0
	[31,7] 0
	[31,8] 0
	[32,1] 0
	[32,2] 0
	[32,3] 0
	[32,4] 0
	[32,5] 0
	[32,6] 1
	[32,7] 0
	[32,8] 0
	[33,1] 1
	[33,2] 0
	[33,3] 0
	[33,4] 0
	[33,5] 0
	[33,6] 1
	[33,7] 0
	[33,8] 0
	[34,1] 0
	[34,2] 1
	[34,3] 0
	[34,4] 0
	[34,5] 0
	[34,6] 1
	[34,7] 0
	[34,8] 0
	[35,1] 1
	[35,2] 1
	[35,3] 0
	[35,4] 0
	[35,5] 0
	[35,6] 1
	[35,7] 0
	[35,8] 0
	[36,1] 0
	[36,2] 0
	[36,3] 1
	[36,4] 0
	[36,5] 0
	[36,6] 1
	[36,7] 0
	[36,8] 0
	[37,1] 1
	[37,2] 0
	[37,3] 1
	[37,4] 0
	[37,5] 0
	[37,6] 1
	[37,7] 0
	[37,8] 0
	[38,1] 0
	[38,2] 1
	[38,3] 1
	[38,4] 0
	[38,5] 0
	[38,6] 1
	[38,7] 0
	[38,8] 0
	[39,1] 1
	[39,2] 1
	[39,3] 1
	[39,4] 0
	[39,5] 0
	[39,6] 1
	[39,7] 0
	[39,8] 0
	[40,1] 0
	[40,2] 0
	[40,3] 0
	[40,4] 1
	[40,5] 0
	[40,6] 1
	[40,7] 0
	[40,8] 0
	[41,1] 1
	[41,2] 0
	[41,3] 0
	[41,4] 1
	[41,5] 0
	[41,6] 1
	[41,7] 0
	[41,8] 0
	[42,1] 0
	[42,2] 1
	[42,3] 0
	[42,4] 1
	[42,5] 0
	[42,6] 1
	[42,7] 0
	[42,8] 0
	[43,1] 1
	[43,2] 1
	[43,3] 0
	[43,4] 1
	[43,5] 0
	[43,6] 1
	[43,7] 0
	[43,8] 0
	[44,1] 0
	[44,2] 0
	[44,3] 1
	[44,4] 1
	[44,5] 0
	[44,6] 1
	[44,7] 0
	[44,8] 0
	[45,1] 1
	[45,2] 0
	[45,3] 1
	[45,4] 1
	[45,5] 0
	[45,6] 1
	[45,7] 0
	[45,8] 0
	[46,1] 0
	[46,2] 1
	[46,3] 1
	[46,4] 1
	[46,5] 0
	[46,6] 1
	[46,7] 0
	[46,8] 0
	[47,1] 1
	[47,2] 1
	[47,3] 1
	[47,4] 1
	[47,5] 0
	[47,6] 1
	[47,7] 0
	[47,8] 0
	[48,1] 0
	[48,2] 0
	[48,3] 0
	[48,4] 0
	[48,5] 1
	[48,6] 1
	[48,7] 0
	[48,8] 0
	[49,1] 1
	[49,2] 0
	[49,3] 0
	[49,4] 0
	[49,5] 1
	[49,6] 1
	[49,7] 0
	[49,8] 0
	[50,1] 0
	[50,2] 1
	[50,3] 0
	[50,4] 0
	[50,5] 1
	[50,6] 1
	[50,7] 0
	[50,8] 0
	[51,1] 1
	[51,2] 1
	[51,3] 0
	[51,4] 0
	[51,5] 1
	[51,6] 1
	[51,7] 0
	[51,8] 0
	[52,1] 0
	[52,2] 0
	[52,3] 1
	[52,4] 0
	[52,5] 1
	[52,6] 1
	[52,7] 0
	[52,8] 0
	[53,1] 1
	[53,2] 0
	[53,3] 1
	[53,4] 0
	[53,5] 1
	[53,6] 1
	[53,7] 0
	[53,8] 0
	[54,1] 0
	[54,2] 1
	[54,3] 1
	[54,4] 0
	[54,5] 1
	[54,6] 1
	[54,7] 0
	[54,8] 0
	[55,1] 1
	[55,2] 1
	[55,3] 1
	[55,4] 0
	[55,5] 1
	[55,6] 1
	[55,7] 0
	[55,8] 0
	[56,1] 0
	[56,2] 0
	[56,3] 0
	[56,4] 1
	[56,5] 1
	[56,6] 1
	[56,7] 0
	[56,8] 0
	[57,1] 1
	[57,2] 0
	[57,3] 0
	[57,4] 1
	[57,5] 1
	[57,6] 1
	[57,7] 0
	[57,8] 0
	[58,1] 0
	[58,2] 1
	[58,3] 0
	[58,4] 1
	[58,5] 1
	[58,6] 1
	[58,7] 0
	[58,8] 0
	[59,1] 1
	[59,2] 1
	[59,3] 0
	[59,4] 1
	[59,5] 1
	[59,6] 1
	[59,7] 0
	[59,8] 0
	[60,1] 0
	[60,2] 0
	[60,3] 1
	[60,4] 1
	[60,5] 1
	[60,6] 1
	[60,7] 0
	[60,8] 0
	[61,1] 1
	[61,2] 0
	[61,3] 1
	[61,4] 1
	[61,5] 1
	[61,6] 1
	[61,7] 0
	[61,8] 0
	[62,1] 0
	[62,2] 1
	[62,3] 1
	[62,4] 1
	[62,5] 1
	[62,6] 1
	[62,7] 0
	[62,8] 0
	[63,1] 1
	[63,2] 1
	[63,3] 1
	[63,4] 1
	[63,5] 1
	[63,6] 1
	[63,7] 0
	[63,8] 0
	[64,1] 0
	[64,2] 0
	[64,3] 0
	[64,4] 0
	[64,5] 0
	[64,6] 0
	[64,7] 1
	[64,8] 0
	[65,1] 1
	[65,2] 0
	[65,3] 0
	[65,4] 0
	[65,5] 0
	[65,6] 0
	[65,7] 1
	[65,8] 0
	[66,1] 0
	[66,2] 1
	[66,3] 0
	[66,4] 0
	[66,5] 0
	[66,6] 0
	[66,7] 1
	[66,8] 0
	[67,1] 1
	[67,2] 1
	[67,3] 0
	[67,4] 0
	[67,5] 0
	[67,6] 0
	[67,7] 1
	[67,8] 0
	[68,1] 0
	[68,2] 0
	[68,3] 1
	[68,4] 0
	[68,5] 0
	[68,6] 0
	[68,7] 1
	[68,8] 0
	[69,1] 1
	[69,2] 0
	[69,3] 1
	[69,4] 0
	[69,5] 0
	[69,6] 0
	[69,7] 1
	[69,8] 0
	[70,1] 0
	[70,2] 1
	[70,3] 1
	[70,4] 0
	[70,5] 0
	[70,6] 0
	[70,7] 1
	[70,8] 0
	[71,1] 1
	[71,2] 1
	[71,3] 1
	[71,4] 0
	[71,5] 0
	[71,6] 0
	[71,7] 1
	[71,8] 0
	[72,1] 0
	[72,2] 0
	[72,3] 0
	[72,4] 1
	[72,5] 0
	[72,6] 0
	[72,7] 1
	[72,8] 0
	[73,1] 1
	[73,2] 0
	[73,3] 0
	[73,4] 1
	[73,5] 0
	[73,6] 0
	[73,7] 1
	[73,8] 0
	[74,1] 0
	[74,2] 1
	[74,3] 0
	[74,4] 1
	[74,5] 0
	[74,6] 0
	[74,7] 1
	[74,8] 0
	[75,1] 1
	[75,2] 1
	[75,3] 0
	[75,4] 1
	[75,5] 0
	[75,6] 0
	[75,7] 1
	[75,8] 0
	[76,1] 0
	[76,2] 0
	[76,3] 1
	[76,4] 1
	[76,5] 0
	[76,6] 0
	[76,7] 1
	[76,8] 0
	[77,1] 1
	[77,2] 0
	[77,3] 1
	[77,4] 1
	[77,5] 0
	[77,6] 0
	[77,7] 1
	[77,8] 0
	[78,1] 0
	[78,2] 1
	[78,3] 1
	[78,4] 1
	[78,5] 0
	[78,6] 0
	[78,7] 1
	[78,8] 0
	[79,1] 1
	[79,2] 1
	[79,3] 1
	[79,4] 1
	[79,5] 0
	[79,6] 0
	[79,7] 1
	[79,8] 0
	[80,1] 0
	[80,2] 0
	[80,3] 0
	[80,4] 0
	[80,5] 1
	[80,6] 0
	[80,7] 1
	[80,8] 0
	[81,1] 1
	[81,2] 0
	[81,3] 0
	[81,4] 0
	[81,5] 1
	[81,6] 0
	[81,7] 1
	[81,8] 0
	[82,1] 0
	[82,2] 1
	[82,3] 0
	[82,4] 0
	[82,5] 1
	[82,6] 0
	[82,7] 1
	[82,8] 0
	[83,1] 1
	[83,2] 1
	[83,3] 0
	[83,4] 0
	[83,5] 1
	[83,6] 0
	[83,7] 1
	[83,8] 0
	[84,1] 0
	[84,2] 0
	[84,3] 1
	[84,4] 0
	[84,5] 1
	[84,6] 0
	[84,7] 1
	[84,8] 0
	[85,1] 1
	[85,2] 0
	[85,3] 1
	[85,4] 0
	[85,5] 1
	[85,6] 0
	[85,7] 1
	[85,8] 0
	[86,1] 0
	[86,2] 1
	[86,3] 1
	[86,4] 0
	[86,5] 1
	[86,6] 0
	[86,7] 1
	[86,8] 0
	[87,1] 1
	[87,2] 1
	[87,3] 1
	[87,4] 0
	[87,5] 1
	[87,6] 0
	[87,7] 1
	[87,8] 0
	[88,1] 0
	[88,2] 0
	[88,3] 0
	[88,4] 1
	[88,5] 1
	[88,6] 0
	[88,7] 1
	[88,8] 0
	[89,1] 1
	[89,2] 0
	[89,3] 0
	[89,4] 1
	[89,5] 1
	[89,6] 0
	[89,7] 1
	[89,8] 0
	[90,1] 0
	[90,2] 1
	[90,3] 0
	[90,4] 1
	[90,5] 1
	[90,6] 0
	[90,7] 1
	[90,8] 0
	[91,1] 1
	[91,2] 1
	[91,3] 0
	[91,4] 1
	[91,5] 1
	[91,6] 0
	[91,7] 1
	[91,8] 0
	[92,1] 0
	[92,2] 0
	[92,3] 1
	[92,4] 1
	[92,5] 1
	[92,6] 0
	[92,7] 1
	[92,8] 0
	[93,1] 1
	[93,2] 0
	[93,3] 1
	[93,4] 1
	[93,5] 1
	[93,6] 0
	[93,7] 1
	[93,8] 0
	[94,1] 0
	[94,2] 1
	[94,3] 1
	[94,4] 1
	[94,5] 1
	[94,6] 0
	[94,7] 1
	[94,8] 0
	[95,1] 1
	[95,2] 1
	[95,3] 1
	[95,4] 1
	[95,5] 1
	[95,6] 0
	[95,7] 1
	[95,8] 0
	[96,1] 0
	[96,2] 0
	[96,3] 0
	[96,4] 0
	[96,5] 0
	[96,6] 1
	[96,7] 1
	[96,8] 0
	[97,1] 1
	[97,2] 0
	[97,3] 0
	[97,4] 0
	[97,5] 0
	[97,6] 1
	[97,7] 1
	[97,8] 0
	[98,1] 0
	[98,2] 1
	[98,3] 0
	[98,4] 0
	[98,5] 0
	[98,6] 1
	[98,7] 1
	[98,8] 0
	[99,1] 1
	[99,2] 1
	[99,3] 0
	[99,4] 0
	[99,5] 0
	[99,6] 1
	[99,7] 1
	[99,8] 0
	[100,1] 0
	[100,2] 0
	[100,3] 1
	[100,4] 0
	[100,5] 0
	[100,6] 1
	[100,7] 1
	[100,8] 0
	[101,1] 1
	[101,2] 0
	[101,3] 1
	[101,4] 0
	[101,5] 0
	[101,6] 1
	[101,7] 1
	[101,8] 0
	[102,1] 0
	[102,2] 1
	[102,3] 1
	[102,4] 0
	[102,5] 0
	[102,6] 1
	[102,7] 1
	[102,8] 0
	[103,1] 1
	[103,2] 1
	[103,3] 1
	[103,4] 0
	[103,5] 0
	[103,6] 1
	[103,7] 1
	[103,8] 0
	[104,1] 0
	[104,2] 0
	[104,3] 0
	[104,4] 1
	[104,5] 0
	[104,6] 1
	[104,7] 1
	[104,8] 0
	[105,1] 1
	[105,2] 0
	[105,3] 0
	[105,4] 1
	[105,5] 0
	[105,6] 1
	[105,7] 1
	[105,8] 0
	[106,1] 0
	[106,2] 1
	[106,3] 0
	[106,4] 1
	[106,5] 0
	[106,6] 1
	[106,7] 1
	[106,8] 0
	[107,1] 1
	[107,2] 1
	[107,3] 0
	[107,4] 1
	[107,5] 0
	[107,6] 1
	[107,7] 1
	[107,8] 0
	[108,1] 0
	[108,2] 0
	[108,3] 1
	[108,4] 1
	[108,5] 0
	[108,6] 1
	[108,7] 1
	[108,8] 0
	[109,1] 1
	[109,2] 0
	[109,3] 1
	[109,4] 1
	[109,5] 0
	[109,6] 1
	[109,7] 1
	[109,8] 0
	[110,1] 0
	[110,2] 1
	[110,3] 1
	[110,4] 1
	[110,5] 0
	[110,6] 1
	[110,7] 1
	[110,8] 0
	[111,1] 1
	[111,2] 1
	[111,3] 1
	[111,4] 1
	[111,5] 0
	[111,6] 1
	[111,7] 1
	[111,8] 0
	[112,1] 0
	[112,2] 0
	[112,3] 0
	[112,4] 0
	[112,5] 1
	[112,6] 1
	[112,7] 1
	[112,8] 0
	[113,1] 1
	[113,2] 0
	[113,3] 0
	[113,4] 0
	[113,5] 1
	[113,6] 1
	[113,7] 1
	[113,8] 0
	[114,1] 0
	[114,2] 1
	[114,3] 0
	[114,4] 0
	[114,5] 1
	[114,6] 1
	[114,7] 1
	[114,8] 0
	[115,1] 1
	[115,2] 1
	[115,3] 0
	[115,4] 0
	[115,5] 1
	[115,6] 1
	[115,7] 1
	[115,8] 0
	[116,1] 0
	[116,2] 0
	[116,3] 1
	[116,4] 0
	[116,5] 1
	[116,6] 1
	[116,7] 1
	[116,8] 0
	[117,1] 1
	[117,2] 0
	[117,3] 1
	[117,4] 0
	[117,5] 1
	[117,6] 1
	[117,7] 1
	[117,8] 0
	[118,1] 0
	[118,2] 1
	[118,3] 1
	[118,4] 0
	[118,5] 1
	[118,6] 1
	[118,7] 1
	[118,8] 0
	[119,1] 1
	[119,2] 1
	[119,3] 1
	[119,4] 0
	[119,5] 1
	[119,6] 1
	[119,7] 1
	[119,8] 0
	[120,1] 0
	[120,2] 0
	[120,3] 0
	[120,4] 1
	[120,5] 1
	[120,6] 1
	[120,7] 1
	[120,8] 0
	[121,1] 1
	[121,2] 0
	[121,3] 0
	[121,4] 1
	[121,5] 1
	[121,6] 1
	[121,7] 1
	[121,8] 0
	[122,1] 0
	[122,2] 1
	[122,3] 0
	[122,4] 1
	[122,5] 1
	[122,6] 1
	[122,7] 1
	[122,8] 0
	[123,1] 1
	[123,2] 1
	[123,3] 0
	[123,4] 1
	[123,5] 1
	[123,6] 1
	[123,7] 1
	[123,8] 0
	[124,1] 0
	[124,2] 0
	[124,3] 1
	[124,4] 1
	[124,5] 1
	[124,6] 1
	[124,7] 1
	[124,8] 0
	[125,1] 1
	[125,2] 0
	[125,3] 1
	[125,4] 1
	[125,5] 1
	[125,6] 1
	[125,7] 1
	[125,8] 0
	[126,1] 0
	[126,2] 1
	[126,3] 1
	[126,4] 1
	[126,5] 1
	[126,6] 1
	[126,7] 1
	[126,8] 0
	[127,1] 1
	[127,2] 1
	[127,3] 1
	[127,4] 1
	[127,5] 1
	[127,6] 1
	[127,7] 1
	[127,8] 0
	[128,1] 0
	[128,2] 0
	[128,3] 0
	[128,4] 0
	[128,5] 0
	[128,6] 0
	[128,7] 0
	[128,8] 1
	[129,1] 1
	[129,2] 0
	[129,3] 0
	[129,4] 0
	[129,5] 0
	[129,6] 0
	[129,7] 0
	[129,8] 1
	[130,1] 0
	[130,2] 1
	[130,3] 0
	[130,4] 0
	[130,5] 0
	[130,6] 0
	[130,7] 0
	[130,8] 1
	[131,1] 1
	[131,2] 1
	[131,3] 0
	[131,4] 0
	[131,5] 0
	[131,6] 0
	[131,7] 0
	[131,8] 1
	[132,1] 0
	[132,2] 0
	[132,3] 1
	[132,4] 0
	[132,5] 0
	[132,6] 0
	[132,7] 0
	[132,8] 1
	[133,1] 1
	[133,2] 0
	[133,3] 1
	[133,4] 0
	[133,5] 0
	[133,6] 0
	[133,7] 0
	[133,8] 1
	[134,1] 0
	[134,2] 1
	[134,3] 1
	[134,4] 0
	[134,5] 0
	[134,6] 0
	[134,7] 0
	[134,8] 1
	[135,1] 1
	[135,2] 1
	[135,3] 1
	[135,4] 0
	[135,5] 0
	[135,6] 0
	[135,7] 0
	[135,8] 1
	[136,1] 0
	[136,2] 0
	[136,3] 0
	[136,4] 1
	[136,5] 0
	[136,6] 0
	[136,7] 0
	[136,8] 1
	[137,1] 1
	[137,2] 0
	[137,3] 0
	[137,4] 1
	[137,5] 0
	[137,6] 0
	[137,7] 0
	[137,8] 1
	[138,1] 0
	[138,2] 1
	[138,3] 0
	[138,4] 1
	[138,5] 0
	[138,6] 0
	[138,7] 0
	[138,8] 1
	[139,1] 1
	[139,2] 1
	[139,3] 0
	[139,4] 1
	[139,5] 0
	[139,6] 0
	[139,7] 0
	[139,8] 1
	[140,1] 0
	[140,2] 0
	[140,3] 1
	[140,4] 1
	[140,5] 0
	[140,6] 0
	[140,7] 0
	[140,8] 1
	[141,1] 1
	[141,2] 0
	[141,3] 1
	[141,4] 1
	[141,5] 0
	[141,6] 0
	[141,7] 0
	[141,8] 1
	[142,1] 0
	[142,2] 1
	[142,3] 1
	[142,4] 1
	[142,5] 0
	[142,6] 0
	[142,7] 0
	[142,8] 1
	[143,1] 1
	[143,2] 1
	[143,3] 1
	[143,4] 1
	[143,5] 0
	[143,6] 0
	[143,7] 0
	[143,8] 1
	[144,1] 0
	[144,2] 0
	[144,3] 0
	[144,4] 0
	[144,5] 1
	[144,6] 0
	[144,7] 0
	[144,8] 1
	[145,1] 1
	[145,2] 0
	[145,3] 0
	[145,4] 0
	[145,5] 1
	[145,6] 0
	[145,7] 0
	[145,8] 1
	[146,1] 0
	[146,2] 1
	[146,3] 0
	[146,4] 0
	[146,5] 1
	[146,6] 0
	[146,7] 0
	[146,8] 1
	[147,1] 1
	[147,2] 1
	[147,3] 0
	[147,4] 0
	[147,5] 1
	[147,6] 0
	[147,7] 0
	[147,8] 1
	[148,1] 0
	[148,2] 0
	[148,3] 1
	[148,4] 0
	[148,5] 1
	[148,6] 0
	[148,7] 0
	[148,8] 1
	[149,1] 1
	[149,2] 0
	[149,3] 1
	[149,4] 0
	[149,5] 1
	[149,6] 0
	[149,7] 0
	[149,8] 1
	[150,1] 0
	[150,2] 1
	[150,3] 1
	[150,4] 0
	[150,5] 1
	[150,6] 0
	[150,7] 0
	[150,8] 1
	[151,1] 1
	[151,2] 1
	[151,3] 1
	[151,4] 0
	[151,5] 1
	[151,6] 0
	[151,7] 0
	[151,8] 1
	[152,1] 0
	[152,2] 0
	[152,3] 0
	[152,4] 1
	[152,5] 1
	[152,6] 0
	[152,7] 0
	[152,8] 1
	[153,1] 1
	[153,2] 0
	[153,3] 0
	[153,4] 1
	[153,5] 1
	[153,6] 0
	[153,7] 0
	[153,8] 1
	[154,1] 0
	[154,2] 1
	[154,3] 0
	[154,4] 1
	[154,5] 1
	[154,6] 0
	[154,7] 0
	[154,8] 1
	[155,1] 1
	[155,2] 1
	[155,3] 0
	[155,4] 1
	[155,5] 1
	[155,6] 0
	[155,7] 0
	[155,8] 1
	[156,1] 0
	[156,2] 0
	[156,3] 1
	[156,4] 1
	[156,5] 1
	[156,6] 0
	[156,7] 0
	[156,8] 1
	[157,1] 1
	[157,2] 0
	[157,3] 1
	[157,4] 1
	[157,5] 1
	[157,6] 0
	[157,7] 0
	[157,8] 1
	[158,1] 0
	[158,2] 1
	[158,3] 1
	[158,4] 1
	[158,5] 1
	[158,6] 0
	[158,7] 0
	[158,8] 1
	[159,1] 1
	[159,2] 1
	[159,3] 1
	[159,4] 1
	[159,5] 1
	[159,6] 0
	[159,7] 0
	[159,8] 1
	[160,1] 0
	[160,2] 0
	[160,3] 0
	[160,4] 0
	[160,5] 0
	[160,6] 1
	[160,7] 0
	[160,8] 1
	[161,1] 1
	[161,2] 0
	[161,3] 0
	[161,4] 0
	[161,5] 0
	[161,6] 1
	[161,7] 0
	[161,8] 1
	[162,1] 0
	[162,2] 1
	[162,3] 0
	[162,4] 0
	[162,5] 0
	[162,6] 1
	[162,7] 0
	[162,8] 1
	[163,1] 1
	[163,2] 1
	[163,3] 0
	[163,4] 0
	[163,5] 0
	[163,6] 1
	[163,7] 0
	[163,8] 1
	[164,1] 0
	[164,2] 0
	[164,3] 1
	[164,4] 0
	[164,5] 0
	[164,6] 1
	[164,7] 0
	[164,8] 1
	[165,1] 1
	[165,2] 0
	[165,3] 1
	[165,4] 0
	[165,5] 0
	[165,6] 1
	[165,7] 0
	[165,8] 1
	[166,1] 0
	[166,2] 1
	[166,3] 1
	[166,4] 0
	[166,5] 0
	[166,6] 1
	[166,7] 0
	[166,8] 1
	[167,1] 1
	[167,2] 1
	[167,3] 1
	[167,4] 0
	[167,5] 0
	[167,6] 1
	[167,7] 0
	[167,8] 1
	[168,1] 0
	[168,2] 0
	[168,3] 0
	[168,4] 1
	[168,5] 0
	[168,6] 1
	[168,7] 0
	[168,8] 1
	[169,1] 1
	[169,2] 0
	[169,3] 0
	[169,4] 1
	[169,5] 0
	[169,6] 1
	[169,7] 0
	[169,8] 1
	[170,1] 0
	[170,2] 1
	[170,3] 0
	[170,4] 1
	[170,5] 0
	[170,6] 1
	[170,7] 0
	[170,8] 1
	[171,1] 1
	[171,2] 1
	[171,3] 0
	[171,4] 1
	[171,5] 0
	[171,6] 1
	[171,7] 0
	[171,8] 1
	[172,1] 0
	[172,2] 0
	[172,3] 1
	[172,4] 1
	[172,5] 0
	[172,6] 1
	[172,7] 0
	[172,8] 1
	[173,1] 1
	[173,2] 0
	[173,3] 1
	[173,4] 1
	[173,5] 0
	[173,6] 1
	[173,7] 0
	[173,8] 1
	[174,1] 0
	[174,2] 1
	[174,3] 1
	[174,4] 1
	[174,5] 0
	[174,6] 1
	[174,7] 0
	[174,8] 1
	[175,1] 1
	[175,2] 1
	[175,3] 1
	[175,4] 1
	[175,5] 0
	[175,6] 1
	[175,7] 0
	[175,8] 1
	[176,1] 0
	[176,2] 0
	[176,3] 0
	[176,4] 0
	[176,5] 1
	[176,6] 1
	[176,7] 0
	[176,8] 1
	[177,1] 1
	[177,2] 0
	[177,3] 0
	[177,4] 0
	[177,5] 1
	[177,6] 1
	[177,7] 0
	[177,8] 1
	[178,1] 0
	[178,2] 1
	[178,3] 0
	[178,4] 0
	[178,5] 1
	[178,6] 1
	[178,7] 0
	[178,8] 1
	[179,1] 1
	[179,2] 1
	[179,3] 0
	[179,4] 0
	[179,5] 1
	[179,6] 1
	[179,7] 0
	[179,8] 1
	[180,1] 0
	[180,2] 0
	[180,3] 1
	[180,4] 0
	[180,5] 1
	[180,6] 1
	[180,7] 0
	[180,8] 1
	[181,1] 1
	[181,2] 0
	[181,3] 1
	[181,4] 0
	[181,5] 1
	[181,6] 1
	[181,7] 0
	[181,8] 1
	[182,1] 0
	[182,2] 1
	[182,3] 1
	[182,4] 0
	[182,5] 1
	[182,6] 1
	[182,7] 0
	[182,8] 1
	[183,1] 1
	[183,2] 1
	[183,3] 1
	[183,4] 0
	[183,5] 1
	[183,6] 1
	[183,7] 0
	[183,8] 1
	[184,1] 0
	[184,2] 0
	[184,3] 0
	[184,4] 1
	[184,5] 1
	[184,6] 1
	[184,7] 0
	[184,8] 1
	[185,1] 1
	[185,2] 0
	[185,3] 0
	[185,4] 1
	[185,5] 1
	[185,6] 1
	[185,7] 0
	[185,8] 1
	[186,1] 0
	[186,2] 1
	[186,3] 0
	[186,4] 1
	[186,5] 1
	[186,6] 1
	[186,7] 0
	[186,8] 1
	[187,1] 1
	[187,2] 1
	[187,3] 0
	[187,4] 1
	[187,5] 1
	[187,6] 1
	[187,7] 0
	[187,8] 1
	[188,1] 0
	[188,2] 0
	[188,3] 1
	[188,4] 1
	[188,5] 1
	[188,6] 1
	[188,7] 0
	[188,8] 1
	[189,1] 1
	[189,2] 0
	[189,3] 1
	[189,4] 1
	[189,5] 1
	[189,6] 1
	[189,7] 0
	[189,8] 1
	[190,1] 0
	[190,2] 1
	[190,3] 1
	[190,4] 1
	[190,5] 1
	[190,6] 1
	[190,7] 0
	[190,8] 1
	[191,1] 1
	[191,2] 1
	[191,3] 1
	[191,4] 1
	[191,5] 1
	[191,6] 1
	[191,7] 0
	[191,8] 1
	[192,1] 0
	[192,2] 0
	[192,3] 0
	[192,4] 0
	[192,5] 0
	[192,6] 0
	[192,7] 1
	[192,8] 1
	[193,1] 1
	[193,2] 0
	[193,3] 0
	[193,4] 0
	[193,5] 0
	[193,6] 0
	[193,7] 1
	[193,8] 1
	[194,1] 0
	[194,2] 1
	[194,3] 0
	[194,4] 0
	[194,5] 0
	[194,6] 0
	[194,7] 1
	[194,8] 1
	[195,1] 1
	[195,2] 1
	[195,3] 0
	[195,4] 0
	[195,5] 0
	[195,6] 0
	[195,7] 1
	[195,8] 1
	[196,1] 0
	[196,2] 0
	[196,3] 1
	[196,4] 0
	[196,5] 0
	[196,6] 0
	[196,7] 1
	[196,8] 1
	[197,1] 1
	[197,2] 0
	[197,3] 1
	[197,4] 0
	[197,5] 0
	[197,6] 0
	[197,7] 1
	[197,8] 1
	[198,1] 0
	[198,2] 1
	[198,3] 1
	[198,4] 0
	[198,5] 0
	[198,6] 0
	[198,7] 1
	[198,8] 1
	[199,1] 1
	[199,2] 1
	[199,3] 1
	[199,4] 0
	[199,5] 0
	[199,6] 0
	[199,7] 1
	[199,8] 1
	[200,1] 0
	[200,2] 0
	[200,3] 0
	[200,4] 1
	[200,5] 0
	[200,6] 0
	[200,7] 1
	[200,8] 1
	[201,1] 1
	[201,2] 0
	[201,3] 0
	[201,4] 1
	[201,5] 0
	[201,6] 0
	[201,7] 1
	[201,8] 1
	[202,1] 0
	[202,2] 1
	[202,3] 0
	[202,4] 1
	[202,5] 0
	[202,6] 0
	[202,7] 1
	[202,8] 1
	[203,1] 1
	[203,2] 1
	[203,3] 0
	[203,4] 1
	[203,5] 0
	[203,6] 0
	[203,7] 1
	[203,8] 1
	[204,1] 0
	[204,2] 0
	[204,3] 1
	[204,4] 1
	[204,5] 0
	[204,6] 0
	[204,7] 1
	[204,8] 1
	[205,1] 1
	[205,2] 0
	[205,3] 1
	[205,4] 1
	[205,5] 0
	[205,6] 0
	[205,7] 1
	[205,8] 1
	[206,1] 0
	[206,2] 1
	[206,3] 1
	[206,4] 1
	[206,5] 0
	[206,6] 0
	[206,7] 1
	[206,8] 1
	[207,1] 1
	[207,2] 1
	[207,3] 1
	[207,4] 1
	[207,5] 0
	[207,6] 0
	[207,7] 1
	[207,8] 1
	[208,1] 0
	[208,2] 0
	[208,3] 0
	[208,4] 0
	[208,5] 1
	[208,6] 0
	[208,7] 1
	[208,8] 1
	[209,1] 1
	[209,2] 0
	[209,3] 0
	[209,4] 0
	[209,5] 1
	[209,6] 0
	[209,7] 1
	[209,8] 1
	[210,1] 0
	[210,2] 1
	[210,3] 0
	[210,4] 0
	[210,5] 1
	[210,6] 0
	[210,7] 1
	[210,8] 1
	[211,1] 1
	[211,2] 1
	[211,3] 0
	[211,4] 0
	[211,5] 1
	[211,6] 0
	[211,7] 1
	[211,8] 1
	[212,1] 0
	[212,2] 0
	[212,3] 1
	[212,4] 0
	[212,5] 1
	[212,6] 0
	[212,7] 1
	[212,8] 1
	[213,1] 1
	[213,2] 0
	[213,3] 1
	[213,4] 0
	[213,5] 1
	[213,6] 0
	[213,7] 1
	[213,8] 1
	[214,1] 0
	[214,2] 1
	[214,3] 1
	[214,4] 0
	[214,5] 1
	[214,6] 0
	[214,7] 1
	[214,8] 1
	[215,1] 1
	[215,2] 1
	[215,3] 1
	[215,4] 0
	[215,5] 1
	[215,6] 0
	[215,7] 1
	[215,8] 1
	[216,1] 0
	[216,2] 0
	[216,3] 0
	[216,4] 1
	[216,5] 1
	[216,6] 0
	[216,7] 1
	[216,8] 1
	[217,1] 1
	[217,2] 0
	[217,3] 0
	[217,4] 1
	[217,5] 1
	[217,6] 0
	[217,7] 1
	[217,8] 1
	[218,1] 0
	[218,2] 1
	[218,3] 0
	[218,4] 1
	[218,5] 1
	[218,6] 0
	[218,7] 1
	[218,8] 1
	[219,1] 1
	[219,2] 1
	[219,3] 0
	[219,4] 1
	[219,5] 1
	[219,6] 0
	[219,7] 1
	[219,8] 1
	[220,1] 0
	[220,2] 0
	[220,3] 1
	[220,4] 1
	[220,5] 1
	[220,6] 0
	[220,7] 1
	[220,8] 1
	[221,1] 1
	[221,2] 0
	[221,3] 1
	[221,4] 1
	[221,5] 1
	[221,6] 0
	[221,7] 1
	[221,8] 1
	[222,1] 0
	[222,2] 1
	[222,3] 1
	[222,4] 1
	[222,5] 1
	[222,6] 0
	[222,7] 1
	[222,8] 1
	[223,1] 1
	[223,2] 1
	[223,3] 1
	[223,4] 1
	[223,5] 1
	[223,6] 0
	[223,7] 1
	[223,8] 1
	[224,1] 0
	[224,2] 0
	[224,3] 0
	[224,4] 0
	[224,5] 0
	[224,6] 1
	[224,7] 1
	[224,8] 1
	[225,1] 1
	[225,2] 0
	[225,3] 0
	[225,4] 0
	[225,5] 0
	[225,6] 1
	[225,7] 1
	[225,8] 1
	[226,1] 0
	[226,2] 1
	[226,3] 0
	[226,4] 0
	[226,5] 0
	[226,6] 1
	[226,7] 1
	[226,8] 1
	[227,1] 1
	[227,2] 1
	[227,3] 0
	[227,4] 0
	[227,5] 0
	[227,6] 1
	[227,7] 1
	[227,8] 1
	[228,1] 0
	[228,2] 0
	[228,3] 1
	[228,4] 0
	[228,5] 0
	[228,6] 1
	[228,7] 1
	[228,8] 1
	[229,1] 1
	[229,2] 0
	[229,3] 1
	[229,4] 0
	[229,5] 0
	[229,6] 1
	[229,7] 1
	[229,8] 1
	[230,1] 0
	[230,2] 1
	[230,3] 1
	[230,4] 0
	[230,5] 0
	[230,6] 1
	[230,7] 1
	[230,8] 1
	[231,1] 1
	[231,2] 1
	[231,3] 1
	[231,4] 0
	[231,5] 0
	[231,6] 1
	[231,7] 1
	[231,8] 1
	[232,1] 0
	[232,2] 0
	[232,3] 0
	[232,4] 1
	[232,5] 0
	[232,6] 1
	[232,7] 1
	[232,8] 1
	[233,1] 1
	[233,2] 0
	[233,3] 0
	[233,4] 1
	[233,5] 0
	[233,6] 1
	[233,7] 1
	[233,8] 1
	[234,1] 0
	[234,2] 1
	[234,3] 0
	[234,4] 1
	[234,5] 0
	[234,6] 1
	[234,7] 1
	[234,8] 1
	[235,1] 1
	[235,2] 1
	[235,3] 0
	[235,4] 1
	[235,5] 0
	[235,6] 1
	[235,7] 1
	[235,8] 1
	[236,1] 0
	[236,2] 0
	[236,3] 1
	[236,4] 1
	[236,5] 0
	[236,6] 1
	[236,7] 1
	[236,8] 1
	[237,1] 1
	[237,2] 0
	[237,3] 1
	[237,4] 1
	[237,5] 0
	[237,6] 1
	[237,7] 1
	[237,8] 1
	[238,1] 0
	[238,2] 1
	[238,3] 1
	[238,4] 1
	[238,5] 0
	[238,6] 1
	[238,7] 1
	[238,8] 1
	[239,1] 1
	[239,2] 1
	[239,3] 1
	[239,4] 1
	[239,5] 0
	[239,6] 1
	[239,7] 1
	[239,8] 1
	[240,1] 0
	[240,2] 0
	[240,3] 0
	[240,4] 0
	[240,5] 1
	[240,6] 1
	[240,7] 1
	[240,8] 1
	[241,1] 1
	[241,2] 0
	[241,3] 0
	[241,4] 0
	[241,5] 1
	[241,6] 1
	[241,7] 1
	[241,8] 1
	[242,1] 0
	[242,2] 1
	[242,3] 0
	[242,4] 0
	[242,5] 1
	[242,6] 1
	[242,7] 1
	[242,8] 1
	[243,1] 1
	[243,2] 1
	[243,3] 0
	[243,4] 0
	[243,5] 1
	[243,6] 1
	[243,7] 1
	[243,8] 1
	[244,1] 0
	[244,2] 0
	[244,3] 1
	[244,4] 0
	[244,5] 1
	[244,6] 1
	[244,7] 1
	[244,8] 1
	[245,1] 1
	[245,2] 0
	[245,3] 1
	[245,4] 0
	[245,5] 1
	[245,6] 1
	[245,7] 1
	[245,8] 1
	[246,1] 0
	[246,2] 1
	[246,3] 1
	[246,4] 0
	[246,5] 1
	[246,6] 1
	[246,7] 1
	[246,8] 1
	[247,1] 1
	[247,2] 1
	[247,3] 1
	[247,4] 0
	[247,5] 1
	[247,6] 1
	[247,7] 1
	[247,8] 1
	[248,1] 0
	[248,2] 0
	[248,3] 0
	[248,4] 1
	[248,5] 1
	[248,6] 1
	[248,7] 1
	[248,8] 1
	[249,1] 1
	[249,2] 0
	[249,3] 0
	[249,4] 1
	[249,5] 1
	[249,6] 1
	[249,7] 1
	[249,8] 1
	[250,1] 0
	[250,2] 1
	[250,3] 0
	[250,4] 1
	[250,5] 1
	[250,6] 1
	[250,7] 1
	[250,8] 1
	[251,1] 1
	[251,2] 1
	[251,3] 0
	[251,4] 1
	[251,5] 1
	[251,6] 1
	[251,7] 1
	[251,8] 1
	[252,1] 0
	[252,2] 0
	[252,3] 1
	[252,4] 1
	[252,5] 1
	[252,6] 1
	[252,7] 1
	[252,8] 1
	[253,1] 1
	[253,2] 0
	[253,3] 1
	[253,4] 1
	[253,5] 1
	[253,6] 1
	[253,7] 1
	[253,8] 1
	[254,1] 0
	[254,2] 1
	[254,3] 1
	[254,4] 1
	[254,5] 1
	[254,6] 1
	[254,7] 1
	[254,8] 1
	[255,1] 1
	[255,2] 1
	[255,3] 1
	[255,4] 1
	[255,5] 1
	[255,6] 1
	[255,7] 1
	[255,8] 1;

